proyfinal/src/viki/013/experimentInOfficeAgust.take6.output/0edef87f-b86d-44b9-8ba4-38cd80860605.als.out
Reading from standard input... Use '--help' for help.
============================[ Problem Statistics ]=============================
|                                                                             |
|  Number of variables:         87638                                         |
|  Number of clauses:          161767                                         |
|  Parse time:                   0.04 s                                       |
|                                                                             |
============================[ Search Statistics ]==============================
| Conflicts |          ORIGINAL         |          LEARNT          | Progress |
|           |    Vars  Clauses Literals |    Limit  Clauses Lit/Cl |          |
===============================================================================
|       100 |   62682   106219   265531 |    38946      100      9 | 28.476 % |
|       250 |   48791    67310   169781 |    42841      231     18 | 44.327 % |
|       475 |   48658    67220   169556 |    47125      454     25 | 44.478 % |
|       812 |   48433    65945   166549 |    51838      783     30 | 44.735 % |
|      1318 |   48406    65838   166294 |    57022     1284     40 | 44.766 % |
|      2077 |   47835    65235   164852 |    62724     2025     40 | 45.418 % |
|      3216 |   47749    63195   159874 |    68996     2857     39 | 45.516 % |
|      4924 |   47467    62018   157059 |    75896     4553     42 | 45.837 % |
|      7486 |   47422    61819   156573 |    83486     7111     40 | 45.889 % |
===============================================================================
restarts              : 39
conflicts             : 9309           (8989 /sec)
decisions             : 34760          (0.00 % random) (33565 /sec)
propagations          : 12780819       (12341284 /sec)
conflict literals     : 355007         (42.49 % deleted)
Memory used           : 24.85 MB
CPU time              : 1.03561 s

UNSATISFIABLE
